
;node and network properties
(declare-const type_node_router String)
(declare-const password.admin_node_desktop String)
(declare-const OS_node_router String)
(declare-const forwards.port.4453_network_desktop-switch Int)
(declare-const blocks.ip_network_desktop-switch (Set Int))
(declare-const memory_node_desktop Int)
(declare-const sudoers_node_desktop (Set String))
(declare-const netsize_network_desktop-switch Int)
(declare-const forwards.ip.3232235535_network_desktop-switch Int)
(declare-const permission.FileServer.documents.read_node_desktop Bool)
(declare-const mounted.mariadb_node_desktop String)
(declare-const flavor_node_desktop String)
(declare-const OS_node_desktop String)
(declare-const flavor_node_router String)
(declare-const memory_node_router Int)
(declare-const connected_network_desktop-switch (Set String))
(declare-const directories_node_desktop (Set String))
(declare-const owner.documents@47$index@46$html_node_desktop String)
(declare-const internet_network_desktop-switch Bool)
(declare-const netid_network_desktop-switch Int)
(declare-const basebox_node_router String)
(declare-const accessible_network_desktop-switch Bool)
(declare-const files_node_desktop (Set String))
(declare-const forwards.ip.3232235565_network_desktop-switch Int)
(declare-const owner.documents@47$market@95$strategy@46$txt_node_desktop String)
(declare-const mounted.openssl_node_desktop String)
(declare-const connected.3232235535_network_desktop-switch String)
(declare-const users_node_desktop (Set String))
(declare-const disk_node_router Int)
(declare-const password.FileServer_node_desktop String)
(declare-const mounted.node@46$js_node_desktop String)
(declare-const blocks.port_network_desktop-switch (Set Int))
(declare-const mounted.nessus_node_desktop String)
(declare-const mounted_node_desktop (Set String))
(declare-const basebox_node_desktop String)
(declare-const disk_node_desktop Int)
(declare-const forwards.port.443_network_desktop-switch Int)
(declare-const permission.WebServer.documents@47$market@95$strategy@46$txt.read_node_desktop Bool)

;assertions545 from user statements
(assert(and (str.<= "kali" OS_node_desktop) (str.< OS_node_desktop "kalj")))
(assert(= "kali" password.admin_node_desktop))
(assert(= "admin" owner.documents@47$market@95$strategy@46$txt_node_desktop))
(assert(set.member "admin" sudoers_node_desktop))
(assert(= permission.WebServer.documents@47$market@95$strategy@46$txt.read_node_desktop true))
(assert(= "WebServer" owner.documents@47$index@46$html_node_desktop))
(assert(not (= permission.FileServer.documents.read_node_desktop true)))
(assert(= "FS" password.FileServer_node_desktop))
(assert(set.member "vim" mounted_node_desktop))
(assert(or (or (and (str.<= "@1@1@0" mounted.openssl_node_desktop) (str.< mounted.openssl_node_desktop "@1@1@@1n")) (and (str.<= "@1@0@2" mounted.openssl_node_desktop) (str.< mounted.openssl_node_desktop "@1@0@@@2zd")) (and (str.<= "@3@0@0" mounted.openssl_node_desktop) (str.< mounted.openssl_node_desktop "@3@0@2"))) (and (str.<= "a250_firmware" OS_node_desktop) (str.< OS_node_desktop "a250_firmwarf")) (or (and (str.<= "fedora-@@34" OS_node_desktop) (str.< OS_node_desktop "fedora-@@35")) (and (str.<= "fedora-@@36" OS_node_desktop) (str.< OS_node_desktop "fedora-@@37"))) (and (= basebox_node_desktop "UNSUPPORTED") (= basebox_node_desktop "HARDWARE_AGNOSTIC")) (or (and (str.<= "@@10@3@0" mounted.mariadb_node_desktop) (str.< mounted.mariadb_node_desktop "@@10@3@@33")) (and (str.<= "@@10@2@0" mounted.mariadb_node_desktop) (str.< mounted.mariadb_node_desktop "@@10@2@@42")) (and (str.<= "@@10@6@0" mounted.mariadb_node_desktop) (str.< mounted.mariadb_node_desktop "@@10@6@6")) (and (str.<= "@@10@5@0" mounted.mariadb_node_desktop) (str.< mounted.mariadb_node_desktop "@@10@5@@14")) (and (str.<= "@@10@7@0" mounted.mariadb_node_desktop) (str.< mounted.mariadb_node_desktop "@@10@7@2")) (and (str.<= "@@10@4@0" mounted.mariadb_node_desktop) (str.< mounted.mariadb_node_desktop "@@10@4@@23"))) (or (str.< mounted.nessus_node_desktop "@8@@15@4") (and (str.<= "@@10@0@0" mounted.nessus_node_desktop) (str.< mounted.nessus_node_desktop "@@10@1@2"))) (or (set.member "clustered_data_ontap_antivirus_connector" mounted_node_desktop) (set.member "santricity_smi-s_provider" mounted_node_desktop) (set.member "storagegrid" mounted_node_desktop) (set.member "clustered_data_ontap" mounted_node_desktop) (set.member "cloud_volumes_ontap_mediator" mounted_node_desktop)) (and (= basebox_node_desktop "UNSUPPORTED") (= basebox_node_desktop "HARDWARE_AGNOSTIC")) (or (and (str.<= "debian_linux-@@11@0" OS_node_desktop) (str.< OS_node_desktop "debian_linux-@@11@1")) (and (str.<= "debian_linux-@@10@0" OS_node_desktop) (str.< OS_node_desktop "debian_linux-@@10@1")) (and (str.<= "debian_linux-@9@0" OS_node_desktop) (str.< OS_node_desktop "debian_linux-@9@1"))) (and (str.<= "500f_firmware" OS_node_desktop) (str.< OS_node_desktop "500f_firmwarf")) (or (and (str.< "@@16@0@0" mounted.node@46$js_node_desktop) (str.<= mounted.node@46$js_node_desktop "@@16@@12@0")) (and (str.<= "@@12@@13@0" mounted.node@46$js_node_desktop) (str.< mounted.node@46$js_node_desktop "@@12@@22@@11")) (and (str.<= "@@14@@15@0" mounted.node@46$js_node_desktop) (str.< mounted.node@46$js_node_desktop "@@14@@19@1")) (and (str.< "@@14@0@0" mounted.node@46$js_node_desktop) (str.<= mounted.node@46$js_node_desktop "@@14@@14@0")) (and (str.< "@@17@0@0" mounted.node@46$js_node_desktop) (str.< mounted.node@46$js_node_desktop "@@17@7@2")) (and (str.<= "@@12@0@0" mounted.node@46$js_node_desktop) (str.<= mounted.node@46$js_node_desktop "@@12@@12@0")) (and (str.<= "@@16@@13@0" mounted.node@46$js_node_desktop) (str.< mounted.node@46$js_node_desktop "@@16@@14@2")))))
(assert(= type_node_router "router"))
(assert(= OS_node_router OS_node_desktop))
(assert(and (= netid_network_desktop-switch 3232235520) (= netsize_network_desktop-switch 256) (<= (set.card connected_network_desktop-switch) (- netsize_network_desktop-switch 2))))
(assert(= connected.3232235535_network_desktop-switch "desktop"))
(assert(set.member "router" connected_network_desktop-switch))
(assert(= internet_network_desktop-switch true))
(assert(= accessible_network_desktop-switch true))
(assert(set.member 80 blocks.port_network_desktop-switch))
(assert(set.member 880 blocks.port_network_desktop-switch))
(assert(set.member 3232235600 blocks.ip_network_desktop-switch))
(assert(set.member 3232235605 blocks.ip_network_desktop-switch))
(assert(= 4430 forwards.port.443_network_desktop-switch))
(assert(= 3232235545 forwards.ip.3232235535_network_desktop-switch))
(assert(= 4530 forwards.port.4453_network_desktop-switch))
(assert(= 3232235585 forwards.ip.3232235565_network_desktop-switch))

;statements implied by assertions
(assert(=> (= "kali" password.admin_node_desktop) (set.member "admin" users_node_desktop)))
(assert(=> (set.member "documents/market_strategy.txt" files_node_desktop) (= (set.insert "documents"  directories_node_desktop) directories_node_desktop)))
(assert(=> (= "admin" owner.documents@47$market@95$strategy@46$txt_node_desktop) (and (set.member "admin" users_node_desktop) (set.member "documents/market_strategy.txt" files_node_desktop))))
(assert(=> (set.member "admin" sudoers_node_desktop) (set.member "admin" users_node_desktop)))
(assert(=> (= permission.WebServer.documents@47$market@95$strategy@46$txt.read_node_desktop true) (and (set.member "WebServer" users_node_desktop) (or (set.member "documents/market_strategy.txt" files_node_desktop) (set.member "documents/market_strategy.txt" directories_node_desktop)))))
(assert(=> (set.member "documents/index.html" files_node_desktop) (= (set.insert "documents"  directories_node_desktop) directories_node_desktop)))
(assert(=> (= "WebServer" owner.documents@47$index@46$html_node_desktop) (and (set.member "WebServer" users_node_desktop) (set.member "documents/index.html" files_node_desktop))))
(assert(=> (= permission.FileServer.documents.read_node_desktop true) (and (set.member "FileServer" users_node_desktop) (or (set.member "documents" files_node_desktop) (set.member "documents" directories_node_desktop)))))
(assert(=> (= "FS" password.FileServer_node_desktop) (set.member "FileServer" users_node_desktop)))
(assert(=> (and (str.<= "@1@1@0" mounted.openssl_node_desktop) (str.< mounted.openssl_node_desktop "@1@1@@1n")) (set.member "openssl" mounted_node_desktop)))
(assert(=> (and (str.<= "@1@0@2" mounted.openssl_node_desktop) (str.< mounted.openssl_node_desktop "@1@0@@@2zd")) (set.member "openssl" mounted_node_desktop)))
(assert(=> (and (str.<= "@3@0@0" mounted.openssl_node_desktop) (str.< mounted.openssl_node_desktop "@3@0@2")) (set.member "openssl" mounted_node_desktop)))
(assert(=> (and (str.<= "@@10@3@0" mounted.mariadb_node_desktop) (str.< mounted.mariadb_node_desktop "@@10@3@@33")) (set.member "mariadb" mounted_node_desktop)))
(assert(=> (and (str.<= "@@10@2@0" mounted.mariadb_node_desktop) (str.< mounted.mariadb_node_desktop "@@10@2@@42")) (set.member "mariadb" mounted_node_desktop)))
(assert(=> (and (str.<= "@@10@6@0" mounted.mariadb_node_desktop) (str.< mounted.mariadb_node_desktop "@@10@6@6")) (set.member "mariadb" mounted_node_desktop)))
(assert(=> (and (str.<= "@@10@5@0" mounted.mariadb_node_desktop) (str.< mounted.mariadb_node_desktop "@@10@5@@14")) (set.member "mariadb" mounted_node_desktop)))
(assert(=> (and (str.<= "@@10@7@0" mounted.mariadb_node_desktop) (str.< mounted.mariadb_node_desktop "@@10@7@2")) (set.member "mariadb" mounted_node_desktop)))
(assert(=> (and (str.<= "@@10@4@0" mounted.mariadb_node_desktop) (str.< mounted.mariadb_node_desktop "@@10@4@@23")) (set.member "mariadb" mounted_node_desktop)))
(assert(=> (str.< mounted.nessus_node_desktop "@8@@15@4") (set.member "nessus" mounted_node_desktop)))
(assert(=> (and (str.<= "@@10@0@0" mounted.nessus_node_desktop) (str.< mounted.nessus_node_desktop "@@10@1@2")) (set.member "nessus" mounted_node_desktop)))
(assert(=> (and (str.< "@@16@0@0" mounted.node@46$js_node_desktop) (str.<= mounted.node@46$js_node_desktop "@@16@@12@0")) (set.member "node.js" mounted_node_desktop)))
(assert(=> (and (str.<= "@@12@@13@0" mounted.node@46$js_node_desktop) (str.< mounted.node@46$js_node_desktop "@@12@@22@@11")) (set.member "node.js" mounted_node_desktop)))
(assert(=> (and (str.<= "@@14@@15@0" mounted.node@46$js_node_desktop) (str.< mounted.node@46$js_node_desktop "@@14@@19@1")) (set.member "node.js" mounted_node_desktop)))
(assert(=> (and (str.< "@@14@0@0" mounted.node@46$js_node_desktop) (str.<= mounted.node@46$js_node_desktop "@@14@@14@0")) (set.member "node.js" mounted_node_desktop)))
(assert(=> (and (str.< "@@17@0@0" mounted.node@46$js_node_desktop) (str.< mounted.node@46$js_node_desktop "@@17@7@2")) (set.member "node.js" mounted_node_desktop)))
(assert(=> (and (str.<= "@@12@0@0" mounted.node@46$js_node_desktop) (str.<= mounted.node@46$js_node_desktop "@@12@@12@0")) (set.member "node.js" mounted_node_desktop)))
(assert(=> (and (str.<= "@@16@@13@0" mounted.node@46$js_node_desktop) (str.< mounted.node@46$js_node_desktop "@@16@@14@2")) (set.member "node.js" mounted_node_desktop)))
(assert(=> (= connected.3232235535_network_desktop-switch "desktop") (and (set.member "desktop" connected_network_desktop-switch) (< netid_network_desktop-switch 3232235535 (+ netid_network_desktop-switch netsize_network_desktop-switch -1)))))

;enviromental properties
(declare-const type_limit_allowed (Set String))
(declare-const BaseBoxes_limit_allowed (Set String))
(declare-fun OS_getter (String) String)
(declare-const flavor_limit_allowed (Set String))
(declare-fun memory_getter (String) Int)
(declare-fun disk_getter (String) Int)

;environmental limits
(assert(<=  disk_node_router 32000000000))
(assert(<=  disk_node_desktop 32000000000))
(assert(<=  (+ 0 disk_node_router disk_node_desktop) 180000000000))
(assert(= (set.card type_limit_allowed) 2))
(assert(= (set.insert "router" "compute"  type_limit_allowed) type_limit_allowed))
(assert(= (set.insert type_node_router  type_limit_allowed) type_limit_allowed))
(assert(= (set.card BaseBoxes_limit_allowed) 8))
(assert(= (set.insert "centos-7.9" "cirros-0-x86_64" "debian-9-x86_64" "debian-8-x86_64" "munikypo/debian-10" "munikypo/kali-2020.4" "debian/bookworm64" "centos/stream9"  BaseBoxes_limit_allowed) BaseBoxes_limit_allowed))
(assert(= (set.insert basebox_node_router basebox_node_desktop  BaseBoxes_limit_allowed) BaseBoxes_limit_allowed))
(assert(= "centos-@3" (OS_getter "centos-7.9")))
(assert(= "cirros-@2" (OS_getter "cirros-0-x86_64")))
(assert(= "debian-@9" (OS_getter "debian-9-x86_64")))
(assert(= "debian_linux-@8@0" (OS_getter "debian-8-x86_64")))
(assert(= "debian-@@10" (OS_getter "munikypo/debian-10")))
(assert(= "kali" (OS_getter "munikypo/kali-2020.4")))
(assert(= "debian_linux-@@12@@@@@@@@20250126@1" (OS_getter "debian/bookworm64")))
(assert(= "centos-@9" (OS_getter "centos/stream9")))
(assert(= OS_node_router (OS_getter basebox_node_router)))
(assert(= OS_node_desktop (OS_getter basebox_node_desktop)))
(assert(= (set.card flavor_limit_allowed) 2))
(assert(= (set.insert "csirtmu.tiny1x2" "csirtmu.tiny1x4"  flavor_limit_allowed) flavor_limit_allowed))
(assert(= (set.insert flavor_node_desktop flavor_node_router  flavor_limit_allowed) flavor_limit_allowed))
(assert(= 2000000000 (memory_getter "csirtmu.tiny1x2")))
(assert(= 4000000000 (memory_getter "csirtmu.tiny1x4")))
(assert(= memory_node_router (memory_getter flavor_node_router)))
(assert(= memory_node_desktop (memory_getter flavor_node_desktop)))
(assert(= 20000000000 (disk_getter "csirtmu.tiny1x2")))
(assert(= 20000000000 (disk_getter "csirtmu.tiny1x4")))
(assert(= disk_node_router (disk_getter flavor_node_router)))
(assert(= disk_node_desktop (disk_getter flavor_node_desktop)))
(assert(=> (set.member "mariadb" mounted_node_desktop) (set.member mounted.mariadb_node_desktop (set.insert "@@10@3@0" "@@10@2@0" "@@10@6@0" "@@10@4@0" "@@10@7@0" "@@10@5@0"  (as set.empty (Set String))))))
(assert(=> (set.member "openssl" mounted_node_desktop) (set.member mounted.openssl_node_desktop (set.insert "@1@1@0" "@1@0@2" "@3@0@0"  (as set.empty (Set String))))))
(assert(=> (set.member "node.js" mounted_node_desktop) (set.member mounted.node@46$js_node_desktop (set.insert "@@14@@14@0" "@@12@@13@0" "@@16@@12@0" "@@16@@13@0" "@@12@@12@0" "@@14@@15@0" "@@12@0@0"  (as set.empty (Set String))))))
(assert(=> (set.member "nessus" mounted_node_desktop) (set.member mounted.nessus_node_desktop (set.insert "@@10@0@0"  (as set.empty (Set String))))))
